nK = 1815;
nT = 8;
nI = 21;
L = 29;
TT = 372;
np = 1;
nc = 3;
b = [62, 55, 68, 60, 63, 22, 20, 62, 56, 53, 46, 31, 39, 34, 36, 49, 22, 34, 22, 54, 46];
d = [146, 117, 129, 147, 120, 88, 31, 147, 144, 121, 113, 134, 68, 71, 140, 120, 106, 84, 115, 93, 91];
m = [1, 1.3, 1.1, 2.1, 2, 1.2, 2.3, 2.2, 1.7, 2.4, 1.4, 1, 1.4, 2.3, 1.7, 1.4, 1.9, 2.3, 1.2, 1.1, 2.2];
pt = [0.28, 0.33, 0.3, 0.26, 0.35, 0.21, 0.2, 0.25];
st = [15.12, 16.83, 12.3, 13.26, 20.3, 10.08, 9, 13.5];
arc = {<1, 0, 1, 1, 0, 0, 0, [1, 1, 1, 1, 1, 1, 1, 1]>, <2, 1, 2, 1, 0, 0, 0, [1, 1, 1, 1, 1, 1, 1, 1]>, <3, 2, 3, 1, 0, 0, 0, [1, 1, 1, 1, 1, 1, 1, 1]>, <4, 3, 4, 1, 0, 0, 0, [1, 1, 1, 1, 1, 1, 1, 1]>, <5, 4, 5, 1, 0, 0, 0, [1, 1, 1, 1, 1, 1, 1, 1]>, <6, 5, 6, 1, 0, 0, 0, [1, 1, 1, 1, 1, 1, 1, 1]>, <7, 6, 7, 1, 0, 0, 0, [1, 1, 1, 1, 1, 1, 1, 1]>, <8, 7, 8, 1, 0, 0, 0, [1, 1, 1, 1, 1, 1, 1, 1]>, <9, 8, 9, 1, 0, 0, 0, [1, 1, 1, 1, 1, 1, 1, 1]>, <10, 9, 10, 1, 0, 0, 0, [1, 1, 1, 1, 1, 1, 1, 1]>, <11, 10, 11, 1, 0, 0, 0, [1, 1, 1, 1, 1, 1, 1, 1]>, <12, 11, 12, 1, 0, 0, 0, [1, 1, 1, 1, 1, 1, 1, 1]>, <13, 12, 13, 1, 0, 0, 0, [1, 1, 1, 1, 1, 1, 1, 1]>, <14, 13, 14, 1, 0, 0, 0, [1, 1, 1, 1, 1, 1, 1, 1]>, <15, 14, 15, 1, 0, 0, 0, [1, 1, 1, 1, 1, 1, 1, 1]>, <16, 15, 16, 1, 0, 0, 0, [1, 1, 1, 1, 1, 1, 1, 1]>, <17, 16, 17, 1, 0, 0, 0, [1, 1, 1, 1, 1, 1, 1, 1]>, <18, 17, 18, 1, 0, 0, 0, [1, 1, 1, 1, 1, 1, 1, 1]>, <19, 18, 19, 1, 0, 0, 0, [1, 1, 1, 1, 1, 1, 1, 1]>, <20, 19, 20, 1, 0, 0, 0, [1, 1, 1, 1, 1, 1, 1, 1]>, <21, 20, 21, 1, 0, 0, 0, [1, 1, 1, 1, 1, 1, 1, 1]>, <22, 21, 22, 1, 0, 0, 0, [1, 1, 1, 1, 1, 1, 1, 1]>, <23, 22, 23, 1, 0, 0, 0, [1, 1, 1, 1, 1, 1, 1, 1]>, <24, 23, 24, 1, 0, 0, 0, [1, 1, 1, 1, 1, 1, 1, 1]>, <25, 24, 25, 1, 0, 0, 0, [1, 1, 1, 1, 1, 1, 1, 1]>, <26, 25, 26, 1, 0, 0, 0, [1, 1, 1, 1, 1, 1, 1, 1]>, <27, 26, 27, 1, 0, 0, 0, [1, 1, 1, 1, 1, 1, 1, 1]>, <28, 27, 28, 1, 0, 0, 0, [1, 1, 1, 1, 1, 1, 1, 1]>, <29, 28, 29, 1, 0, 0, 0, [1, 1, 1, 1, 1, 1, 1, 1]>, <30, 2, 12, 10, 1, 0, 1, [0, 0, 1, 1, 0, 0, 0, 0]>, <31, 3, 13, 10, 1, 0, 1, [0, 0, 1, 1, 0, 0, 0, 0]>, <32, 4, 14, 10, 1, 0, 1, [0, 0, 1, 1, 0, 0, 0, 0]>, <33, 5, 15, 10, 1, 0, 1, [0, 0, 1, 1, 0, 0, 0, 0]>, <34, 10, 20, 10, 1, 0, 1, [0, 0, 1, 1, 0, 0, 0, 0]>, <35, 11, 21, 10, 1, 0, 1, [0, 0, 1, 1, 0, 0, 0, 0]>, <36, 12, 22, 10, 1, 0, 1, [0, 0, 1, 1, 0, 0, 0, 0]>, <37, 14, 24, 10, 1, 0, 1, [0, 0, 1, 1, 0, 0, 0, 0]>, <38, 15, 25, 10, 1, 0, 1, [0, 0, 1, 1, 0, 0, 0, 0]>, <39, 16, 26, 10, 1, 0, 1, [0, 0, 1, 1, 0, 0, 0, 0]>, <40, 17, 27, 10, 1, 0, 1, [0, 0, 1, 1, 0, 0, 0, 0]>, <41, 18, 28, 10, 1, 0, 1, [0, 0, 1, 1, 0, 0, 0, 0]>, <42, 19, 29, 10, 1, 0, 1, [0, 0, 1, 1, 0, 0, 0, 0]>, <43, 1, 12, 11, 2, 0, 0, [1, 0, 0, 0, 0, 0, 0, 1]>, <44, 2, 13, 11, 2, 0, 0, [1, 0, 0, 0, 0, 0, 0, 1]>, <45, 3, 14, 11, 2, 0, 0, [1, 0, 0, 0, 0, 0, 0, 1]>, <46, 4, 15, 11, 2, 0, 0, [1, 0, 0, 0, 0, 0, 0, 1]>, <47, 5, 16, 11, 2, 0, 0, [1, 0, 0, 0, 0, 0, 0, 1]>, <48, 9, 20, 11, 2, 0, 0, [1, 0, 0, 0, 0, 0, 0, 1]>, <49, 10, 21, 11, 2, 0, 0, [1, 0, 0, 0, 0, 0, 0, 1]>, <50, 11, 22, 11, 2, 0, 0, [1, 0, 0, 0, 0, 0, 0, 1]>, <51, 12, 23, 11, 2, 0, 0, [1, 0, 0, 0, 0, 0, 0, 1]>, <52, 13, 24, 11, 2, 0, 0, [1, 0, 0, 0, 0, 0, 0, 1]>, <53, 14, 25, 11, 2, 0, 0, [1, 0, 0, 0, 0, 0, 0, 1]>, <54, 15, 26, 11, 2, 0, 0, [1, 0, 0, 0, 0, 0, 0, 1]>, <55, 16, 27, 11, 2, 0, 0, [1, 0, 0, 0, 0, 0, 0, 1]>, <56, 17, 28, 11, 2, 0, 0, [1, 0, 0, 0, 0, 0, 0, 1]>, <57, 18, 29, 11, 2, 0, 0, [1, 0, 0, 0, 0, 0, 0, 1]>, <58, 4, 12, 8, 3, 0, 0, [1, 0, 0, 0, 0, 0, 0, 1]>, <59, 5, 13, 8, 3, 0, 0, [1, 0, 0, 0, 0, 0, 0, 1]>, <60, 11, 19, 8, 3, 0, 0, [1, 0, 0, 0, 0, 0, 0, 1]>, <61, 12, 20, 8, 3, 0, 0, [1, 0, 0, 0, 0, 0, 0, 1]>, <62, 16, 24, 8, 3, 0, 0, [1, 0, 0, 0, 0, 0, 0, 1]>, <63, 17, 25, 8, 3, 0, 0, [1, 0, 0, 0, 0, 0, 0, 1]>, <64, 18, 26, 8, 3, 0, 0, [1, 0, 0, 0, 0, 0, 0, 1]>, <65, 19, 27, 8, 3, 0, 0, [1, 0, 0, 0, 0, 0, 0, 1]>, <66, 20, 28, 8, 3, 0, 0, [1, 0, 0, 0, 0, 0, 0, 1]>, <67, 3, 12, 9, 4, 0, 0, [0, 0, 0, 0, 1, 1, 0, 0]>, <68, 4, 13, 9, 4, 0, 0, [0, 0, 0, 0, 1, 1, 0, 0]>, <69, 5, 14, 9, 4, 0, 0, [0, 0, 0, 0, 1, 1, 0, 0]>, <70, 11, 20, 9, 4, 0, 0, [0, 0, 0, 0, 1, 1, 0, 0]>, <71, 12, 21, 9, 4, 0, 0, [0, 0, 0, 0, 1, 1, 0, 0]>, <72, 15, 24, 9, 4, 0, 0, [0, 0, 0, 0, 1, 1, 0, 0]>, <73, 16, 25, 9, 4, 0, 0, [0, 0, 0, 0, 1, 1, 0, 0]>, <74, 17, 26, 9, 4, 0, 0, [0, 0, 0, 0, 1, 1, 0, 0]>, <75, 18, 27, 9, 4, 0, 0, [0, 0, 0, 0, 1, 1, 0, 0]>, <76, 19, 28, 9, 4, 0, 0, [0, 0, 0, 0, 1, 1, 0, 0]>, <77, 20, 29, 9, 4, 0, 0, [0, 0, 0, 0, 1, 1, 0, 0]>, <78, 1, 12, 11, 5, 0, 0, [0, 0, 0, 0, 0, 1, 1, 0]>, <79, 2, 13, 11, 5, 0, 0, [0, 0, 0, 0, 0, 1, 1, 0]>, <80, 3, 14, 11, 5, 0, 0, [0, 0, 0, 0, 0, 1, 1, 0]>, <81, 4, 15, 11, 5, 0, 0, [0, 0, 0, 0, 0, 1, 1, 0]>, <82, 5, 16, 11, 5, 0, 0, [0, 0, 0, 0, 0, 1, 1, 0]>, <83, 9, 20, 11, 5, 0, 0, [0, 0, 0, 0, 0, 1, 1, 0]>, <84, 10, 21, 11, 5, 0, 0, [0, 0, 0, 0, 0, 1, 1, 0]>, <85, 11, 22, 11, 5, 0, 0, [0, 0, 0, 0, 0, 1, 1, 0]>, <86, 12, 23, 11, 5, 0, 0, [0, 0, 0, 0, 0, 1, 1, 0]>, <87, 13, 24, 11, 5, 0, 0, [0, 0, 0, 0, 0, 1, 1, 0]>, <88, 14, 25, 11, 5, 0, 0, [0, 0, 0, 0, 0, 1, 1, 0]>, <89, 15, 26, 11, 5, 0, 0, [0, 0, 0, 0, 0, 1, 1, 0]>, <90, 16, 27, 11, 5, 0, 0, [0, 0, 0, 0, 0, 1, 1, 0]>, <91, 17, 28, 11, 5, 0, 0, [0, 0, 0, 0, 0, 1, 1, 0]>, <92, 18, 29, 11, 5, 0, 0, [0, 0, 0, 0, 0, 1, 1, 0]>, <93, 2, 12, 10, 6, 1, 0, [0, 0, 1, 1, 0, 0, 0, 0]>, <94, 3, 13, 10, 6, 1, 0, [0, 0, 1, 1, 0, 0, 0, 0]>, <95, 4, 14, 10, 6, 1, 0, [0, 0, 1, 1, 0, 0, 0, 0]>, <96, 5, 15, 10, 6, 1, 0, [0, 0, 1, 1, 0, 0, 0, 0]>, <97, 10, 20, 10, 6, 1, 0, [0, 0, 1, 1, 0, 0, 0, 0]>, <98, 11, 21, 10, 6, 1, 0, [0, 0, 1, 1, 0, 0, 0, 0]>, <99, 12, 22, 10, 6, 1, 0, [0, 0, 1, 1, 0, 0, 0, 0]>, <100, 14, 24, 10, 6, 1, 0, [0, 0, 1, 1, 0, 0, 0, 0]>, <101, 15, 25, 10, 6, 1, 0, [0, 0, 1, 1, 0, 0, 0, 0]>, <102, 16, 26, 10, 6, 1, 0, [0, 0, 1, 1, 0, 0, 0, 0]>, <103, 17, 27, 10, 6, 1, 0, [0, 0, 1, 1, 0, 0, 0, 0]>, <104, 18, 28, 10, 6, 1, 0, [0, 0, 1, 1, 0, 0, 0, 0]>, <105, 19, 29, 10, 6, 1, 0, [0, 0, 1, 1, 0, 0, 0, 0]>, <106, 1, 12, 11, 7, 0, 1, [0, 1, 1, 0, 0, 0, 0, 0]>, <107, 2, 13, 11, 7, 0, 1, [0, 1, 1, 0, 0, 0, 0, 0]>, <108, 3, 14, 11, 7, 0, 1, [0, 1, 1, 0, 0, 0, 0, 0]>, <109, 4, 15, 11, 7, 0, 1, [0, 1, 1, 0, 0, 0, 0, 0]>, <110, 5, 16, 11, 7, 0, 1, [0, 1, 1, 0, 0, 0, 0, 0]>, <111, 9, 20, 11, 7, 0, 1, [0, 1, 1, 0, 0, 0, 0, 0]>, <112, 10, 21, 11, 7, 0, 1, [0, 1, 1, 0, 0, 0, 0, 0]>, <113, 11, 22, 11, 7, 0, 1, [0, 1, 1, 0, 0, 0, 0, 0]>, <114, 12, 23, 11, 7, 0, 1, [0, 1, 1, 0, 0, 0, 0, 0]>, <115, 13, 24, 11, 7, 0, 1, [0, 1, 1, 0, 0, 0, 0, 0]>, <116, 14, 25, 11, 7, 0, 1, [0, 1, 1, 0, 0, 0, 0, 0]>, <117, 15, 26, 11, 7, 0, 1, [0, 1, 1, 0, 0, 0, 0, 0]>, <118, 16, 27, 11, 7, 0, 1, [0, 1, 1, 0, 0, 0, 0, 0]>, <119, 17, 28, 11, 7, 0, 1, [0, 1, 1, 0, 0, 0, 0, 0]>, <120, 18, 29, 11, 7, 0, 1, [0, 1, 1, 0, 0, 0, 0, 0]>, <121, 0, 12, 12, 8, 0, 1, [0, 0, 0, 0, 1, 1, 0, 0]>, <122, 1, 13, 12, 8, 0, 1, [0, 0, 0, 0, 1, 1, 0, 0]>, <123, 2, 14, 12, 8, 0, 1, [0, 0, 0, 0, 1, 1, 0, 0]>, <124, 3, 15, 12, 8, 0, 1, [0, 0, 0, 0, 1, 1, 0, 0]>, <125, 4, 16, 12, 8, 0, 1, [0, 0, 0, 0, 1, 1, 0, 0]>, <126, 5, 17, 12, 8, 0, 1, [0, 0, 0, 0, 1, 1, 0, 0]>, <127, 8, 20, 12, 8, 0, 1, [0, 0, 0, 0, 1, 1, 0, 0]>, <128, 9, 21, 12, 8, 0, 1, [0, 0, 0, 0, 1, 1, 0, 0]>, <129, 10, 22, 12, 8, 0, 1, [0, 0, 0, 0, 1, 1, 0, 0]>, <130, 11, 23, 12, 8, 0, 1, [0, 0, 0, 0, 1, 1, 0, 0]>, <131, 12, 24, 12, 8, 0, 1, [0, 0, 0, 0, 1, 1, 0, 0]>, <132, 13, 25, 12, 8, 0, 1, [0, 0, 0, 0, 1, 1, 0, 0]>, <133, 14, 26, 12, 8, 0, 1, [0, 0, 0, 0, 1, 1, 0, 0]>, <134, 15, 27, 12, 8, 0, 1, [0, 0, 0, 0, 1, 1, 0, 0]>, <135, 16, 28, 12, 8, 0, 1, [0, 0, 0, 0, 1, 1, 0, 0]>, <136, 17, 29, 12, 8, 0, 1, [0, 0, 0, 0, 1, 1, 0, 0]>, <137, 2, 12, 10, 9, 0, 1, [0, 0, 0, 1, 1, 0, 0, 0]>, <138, 3, 13, 10, 9, 0, 1, [0, 0, 0, 1, 1, 0, 0, 0]>, <139, 4, 14, 10, 9, 0, 1, [0, 0, 0, 1, 1, 0, 0, 0]>, <140, 5, 15, 10, 9, 0, 1, [0, 0, 0, 1, 1, 0, 0, 0]>, <141, 10, 20, 10, 9, 0, 1, [0, 0, 0, 1, 1, 0, 0, 0]>, <142, 11, 21, 10, 9, 0, 1, [0, 0, 0, 1, 1, 0, 0, 0]>, <143, 12, 22, 10, 9, 0, 1, [0, 0, 0, 1, 1, 0, 0, 0]>, <144, 14, 24, 10, 9, 0, 1, [0, 0, 0, 1, 1, 0, 0, 0]>, <145, 15, 25, 10, 9, 0, 1, [0, 0, 0, 1, 1, 0, 0, 0]>, <146, 16, 26, 10, 9, 0, 1, [0, 0, 0, 1, 1, 0, 0, 0]>, <147, 17, 27, 10, 9, 0, 1, [0, 0, 0, 1, 1, 0, 0, 0]>, <148, 18, 28, 10, 9, 0, 1, [0, 0, 0, 1, 1, 0, 0, 0]>, <149, 19, 29, 10, 9, 0, 1, [0, 0, 0, 1, 1, 0, 0, 0]>, <150, 0, 12, 12, 10, 0, 1, [0, 0, 0, 0, 1, 1, 0, 0]>, <151, 1, 13, 12, 10, 0, 1, [0, 0, 0, 0, 1, 1, 0, 0]>, <152, 2, 14, 12, 10, 0, 1, [0, 0, 0, 0, 1, 1, 0, 0]>, <153, 3, 15, 12, 10, 0, 1, [0, 0, 0, 0, 1, 1, 0, 0]>, <154, 4, 16, 12, 10, 0, 1, [0, 0, 0, 0, 1, 1, 0, 0]>, <155, 5, 17, 12, 10, 0, 1, [0, 0, 0, 0, 1, 1, 0, 0]>, <156, 8, 20, 12, 10, 0, 1, [0, 0, 0, 0, 1, 1, 0, 0]>, <157, 9, 21, 12, 10, 0, 1, [0, 0, 0, 0, 1, 1, 0, 0]>, <158, 10, 22, 12, 10, 0, 1, [0, 0, 0, 0, 1, 1, 0, 0]>, <159, 11, 23, 12, 10, 0, 1, [0, 0, 0, 0, 1, 1, 0, 0]>, <160, 12, 24, 12, 10, 0, 1, [0, 0, 0, 0, 1, 1, 0, 0]>, <161, 13, 25, 12, 10, 0, 1, [0, 0, 0, 0, 1, 1, 0, 0]>, <162, 14, 26, 12, 10, 0, 1, [0, 0, 0, 0, 1, 1, 0, 0]>, <163, 15, 27, 12, 10, 0, 1, [0, 0, 0, 0, 1, 1, 0, 0]>, <164, 16, 28, 12, 10, 0, 1, [0, 0, 0, 0, 1, 1, 0, 0]>, <165, 17, 29, 12, 10, 0, 1, [0, 0, 0, 0, 1, 1, 0, 0]>, <166, 1, 12, 11, 11, 1, 0, [1, 0, 0, 0, 0, 0, 0, 1]>, <167, 2, 13, 11, 11, 1, 0, [1, 0, 0, 0, 0, 0, 0, 1]>, <168, 3, 14, 11, 11, 1, 0, [1, 0, 0, 0, 0, 0, 0, 1]>, <169, 4, 15, 11, 11, 1, 0, [1, 0, 0, 0, 0, 0, 0, 1]>, <170, 5, 16, 11, 11, 1, 0, [1, 0, 0, 0, 0, 0, 0, 1]>, <171, 9, 20, 11, 11, 1, 0, [1, 0, 0, 0, 0, 0, 0, 1]>, <172, 10, 21, 11, 11, 1, 0, [1, 0, 0, 0, 0, 0, 0, 1]>, <173, 11, 22, 11, 11, 1, 0, [1, 0, 0, 0, 0, 0, 0, 1]>, <174, 12, 23, 11, 11, 1, 0, [1, 0, 0, 0, 0, 0, 0, 1]>, <175, 13, 24, 11, 11, 1, 0, [1, 0, 0, 0, 0, 0, 0, 1]>, <176, 14, 25, 11, 11, 1, 0, [1, 0, 0, 0, 0, 0, 0, 1]>, <177, 15, 26, 11, 11, 1, 0, [1, 0, 0, 0, 0, 0, 0, 1]>, <178, 16, 27, 11, 11, 1, 0, [1, 0, 0, 0, 0, 0, 0, 1]>, <179, 17, 28, 11, 11, 1, 0, [1, 0, 0, 0, 0, 0, 0, 1]>, <180, 18, 29, 11, 11, 1, 0, [1, 0, 0, 0, 0, 0, 0, 1]>, <181, 4, 11, 7, 12, 0, 1, [0, 0, 0, 0, 0, 0, 1, 1]>, <182, 5, 12, 7, 12, 0, 1, [0, 0, 0, 0, 0, 0, 1, 1]>, <183, 11, 18, 7, 12, 0, 1, [0, 0, 0, 0, 0, 0, 1, 1]>, <184, 12, 19, 7, 12, 0, 1, [0, 0, 0, 0, 0, 0, 1, 1]>, <185, 17, 24, 7, 12, 0, 1, [0, 0, 0, 0, 0, 0, 1, 1]>, <186, 18, 25, 7, 12, 0, 1, [0, 0, 0, 0, 0, 0, 1, 1]>, <187, 19, 26, 7, 12, 0, 1, [0, 0, 0, 0, 0, 0, 1, 1]>, <188, 20, 27, 7, 12, 0, 1, [0, 0, 0, 0, 0, 0, 1, 1]>, <189, 4, 12, 8, 13, 0, 0, [1, 0, 0, 0, 0, 0, 0, 1]>, <190, 5, 13, 8, 13, 0, 0, [1, 0, 0, 0, 0, 0, 0, 1]>, <191, 11, 19, 8, 13, 0, 0, [1, 0, 0, 0, 0, 0, 0, 1]>, <192, 12, 20, 8, 13, 0, 0, [1, 0, 0, 0, 0, 0, 0, 1]>, <193, 16, 24, 8, 13, 0, 0, [1, 0, 0, 0, 0, 0, 0, 1]>, <194, 17, 25, 8, 13, 0, 0, [1, 0, 0, 0, 0, 0, 0, 1]>, <195, 18, 26, 8, 13, 0, 0, [1, 0, 0, 0, 0, 0, 0, 1]>, <196, 19, 27, 8, 13, 0, 0, [1, 0, 0, 0, 0, 0, 0, 1]>, <197, 20, 28, 8, 13, 0, 0, [1, 0, 0, 0, 0, 0, 0, 1]>, <198, 3, 12, 9, 14, 0, 1, [0, 0, 0, 0, 1, 1, 0, 0]>, <199, 4, 13, 9, 14, 0, 1, [0, 0, 0, 0, 1, 1, 0, 0]>, <200, 5, 14, 9, 14, 0, 1, [0, 0, 0, 0, 1, 1, 0, 0]>, <201, 11, 20, 9, 14, 0, 1, [0, 0, 0, 0, 1, 1, 0, 0]>, <202, 12, 21, 9, 14, 0, 1, [0, 0, 0, 0, 1, 1, 0, 0]>, <203, 15, 24, 9, 14, 0, 1, [0, 0, 0, 0, 1, 1, 0, 0]>, <204, 16, 25, 9, 14, 0, 1, [0, 0, 0, 0, 1, 1, 0, 0]>, <205, 17, 26, 9, 14, 0, 1, [0, 0, 0, 0, 1, 1, 0, 0]>, <206, 18, 27, 9, 14, 0, 1, [0, 0, 0, 0, 1, 1, 0, 0]>, <207, 19, 28, 9, 14, 0, 1, [0, 0, 0, 0, 1, 1, 0, 0]>, <208, 20, 29, 9, 14, 0, 1, [0, 0, 0, 0, 1, 1, 0, 0]>, <209, 1, 12, 11, 15, 0, 0, [0, 0, 0, 0, 0, 0, 1, 1]>, <210, 2, 13, 11, 15, 0, 0, [0, 0, 0, 0, 0, 0, 1, 1]>, <211, 3, 14, 11, 15, 0, 0, [0, 0, 0, 0, 0, 0, 1, 1]>, <212, 4, 15, 11, 15, 0, 0, [0, 0, 0, 0, 0, 0, 1, 1]>, <213, 5, 16, 11, 15, 0, 0, [0, 0, 0, 0, 0, 0, 1, 1]>, <214, 9, 20, 11, 15, 0, 0, [0, 0, 0, 0, 0, 0, 1, 1]>, <215, 10, 21, 11, 15, 0, 0, [0, 0, 0, 0, 0, 0, 1, 1]>, <216, 11, 22, 11, 15, 0, 0, [0, 0, 0, 0, 0, 0, 1, 1]>, <217, 12, 23, 11, 15, 0, 0, [0, 0, 0, 0, 0, 0, 1, 1]>, <218, 13, 24, 11, 15, 0, 0, [0, 0, 0, 0, 0, 0, 1, 1]>, <219, 14, 25, 11, 15, 0, 0, [0, 0, 0, 0, 0, 0, 1, 1]>, <220, 15, 26, 11, 15, 0, 0, [0, 0, 0, 0, 0, 0, 1, 1]>, <221, 16, 27, 11, 15, 0, 0, [0, 0, 0, 0, 0, 0, 1, 1]>, <222, 17, 28, 11, 15, 0, 0, [0, 0, 0, 0, 0, 0, 1, 1]>, <223, 18, 29, 11, 15, 0, 0, [0, 0, 0, 0, 0, 0, 1, 1]>, <224, 2, 12, 10, 16, 1, 0, [0, 0, 0, 0, 0, 0, 1, 1]>, <225, 3, 13, 10, 16, 1, 0, [0, 0, 0, 0, 0, 0, 1, 1]>, <226, 4, 14, 10, 16, 1, 0, [0, 0, 0, 0, 0, 0, 1, 1]>, <227, 5, 15, 10, 16, 1, 0, [0, 0, 0, 0, 0, 0, 1, 1]>, <228, 10, 20, 10, 16, 1, 0, [0, 0, 0, 0, 0, 0, 1, 1]>, <229, 11, 21, 10, 16, 1, 0, [0, 0, 0, 0, 0, 0, 1, 1]>, <230, 12, 22, 10, 16, 1, 0, [0, 0, 0, 0, 0, 0, 1, 1]>, <231, 14, 24, 10, 16, 1, 0, [0, 0, 0, 0, 0, 0, 1, 1]>, <232, 15, 25, 10, 16, 1, 0, [0, 0, 0, 0, 0, 0, 1, 1]>, <233, 16, 26, 10, 16, 1, 0, [0, 0, 0, 0, 0, 0, 1, 1]>, <234, 17, 27, 10, 16, 1, 0, [0, 0, 0, 0, 0, 0, 1, 1]>, <235, 18, 28, 10, 16, 1, 0, [0, 0, 0, 0, 0, 0, 1, 1]>, <236, 19, 29, 10, 16, 1, 0, [0, 0, 0, 0, 0, 0, 1, 1]>, <237, 4, 12, 8, 17, 0, 0, [0, 0, 0, 0, 0, 1, 1, 0]>, <238, 5, 13, 8, 17, 0, 0, [0, 0, 0, 0, 0, 1, 1, 0]>, <239, 11, 19, 8, 17, 0, 0, [0, 0, 0, 0, 0, 1, 1, 0]>, <240, 12, 20, 8, 17, 0, 0, [0, 0, 0, 0, 0, 1, 1, 0]>, <241, 16, 24, 8, 17, 0, 0, [0, 0, 0, 0, 0, 1, 1, 0]>, <242, 17, 25, 8, 17, 0, 0, [0, 0, 0, 0, 0, 1, 1, 0]>, <243, 18, 26, 8, 17, 0, 0, [0, 0, 0, 0, 0, 1, 1, 0]>, <244, 19, 27, 8, 17, 0, 0, [0, 0, 0, 0, 0, 1, 1, 0]>, <245, 20, 28, 8, 17, 0, 0, [0, 0, 0, 0, 0, 1, 1, 0]>, <246, 2, 12, 10, 18, 1, 0, [0, 0, 0, 0, 0, 0, 1, 1]>, <247, 3, 13, 10, 18, 1, 0, [0, 0, 0, 0, 0, 0, 1, 1]>, <248, 4, 14, 10, 18, 1, 0, [0, 0, 0, 0, 0, 0, 1, 1]>, <249, 5, 15, 10, 18, 1, 0, [0, 0, 0, 0, 0, 0, 1, 1]>, <250, 10, 20, 10, 18, 1, 0, [0, 0, 0, 0, 0, 0, 1, 1]>, <251, 11, 21, 10, 18, 1, 0, [0, 0, 0, 0, 0, 0, 1, 1]>, <252, 12, 22, 10, 18, 1, 0, [0, 0, 0, 0, 0, 0, 1, 1]>, <253, 14, 24, 10, 18, 1, 0, [0, 0, 0, 0, 0, 0, 1, 1]>, <254, 15, 25, 10, 18, 1, 0, [0, 0, 0, 0, 0, 0, 1, 1]>, <255, 16, 26, 10, 18, 1, 0, [0, 0, 0, 0, 0, 0, 1, 1]>, <256, 17, 27, 10, 18, 1, 0, [0, 0, 0, 0, 0, 0, 1, 1]>, <257, 18, 28, 10, 18, 1, 0, [0, 0, 0, 0, 0, 0, 1, 1]>, <258, 19, 29, 10, 18, 1, 0, [0, 0, 0, 0, 0, 0, 1, 1]>, <259, 2, 12, 10, 19, 0, 1, [0, 0, 1, 1, 0, 0, 0, 0]>, <260, 3, 13, 10, 19, 0, 1, [0, 0, 1, 1, 0, 0, 0, 0]>, <261, 4, 14, 10, 19, 0, 1, [0, 0, 1, 1, 0, 0, 0, 0]>, <262, 5, 15, 10, 19, 0, 1, [0, 0, 1, 1, 0, 0, 0, 0]>, <263, 10, 20, 10, 19, 0, 1, [0, 0, 1, 1, 0, 0, 0, 0]>, <264, 11, 21, 10, 19, 0, 1, [0, 0, 1, 1, 0, 0, 0, 0]>, <265, 12, 22, 10, 19, 0, 1, [0, 0, 1, 1, 0, 0, 0, 0]>, <266, 14, 24, 10, 19, 0, 1, [0, 0, 1, 1, 0, 0, 0, 0]>, <267, 15, 25, 10, 19, 0, 1, [0, 0, 1, 1, 0, 0, 0, 0]>, <268, 16, 26, 10, 19, 0, 1, [0, 0, 1, 1, 0, 0, 0, 0]>, <269, 17, 27, 10, 19, 0, 1, [0, 0, 1, 1, 0, 0, 0, 0]>, <270, 18, 28, 10, 19, 0, 1, [0, 0, 1, 1, 0, 0, 0, 0]>, <271, 19, 29, 10, 19, 0, 1, [0, 0, 1, 1, 0, 0, 0, 0]>, <272, 3, 12, 9, 20, 0, 1, [0, 0, 0, 0, 0, 1, 1, 0]>, <273, 4, 13, 9, 20, 0, 1, [0, 0, 0, 0, 0, 1, 1, 0]>, <274, 5, 14, 9, 20, 0, 1, [0, 0, 0, 0, 0, 1, 1, 0]>, <275, 11, 20, 9, 20, 0, 1, [0, 0, 0, 0, 0, 1, 1, 0]>, <276, 12, 21, 9, 20, 0, 1, [0, 0, 0, 0, 0, 1, 1, 0]>, <277, 15, 24, 9, 20, 0, 1, [0, 0, 0, 0, 0, 1, 1, 0]>, <278, 16, 25, 9, 20, 0, 1, [0, 0, 0, 0, 0, 1, 1, 0]>, <279, 17, 26, 9, 20, 0, 1, [0, 0, 0, 0, 0, 1, 1, 0]>, <280, 18, 27, 9, 20, 0, 1, [0, 0, 0, 0, 0, 1, 1, 0]>, <281, 19, 28, 9, 20, 0, 1, [0, 0, 0, 0, 0, 1, 1, 0]>, <282, 20, 29, 9, 20, 0, 1, [0, 0, 0, 0, 0, 1, 1, 0]>, <283, 4, 11, 7, 21, 0, 0, [0, 0, 0, 1, 1, 0, 0, 0]>, <284, 5, 12, 7, 21, 0, 0, [0, 0, 0, 1, 1, 0, 0, 0]>, <285, 11, 18, 7, 21, 0, 0, [0, 0, 0, 1, 1, 0, 0, 0]>, <286, 12, 19, 7, 21, 0, 0, [0, 0, 0, 1, 1, 0, 0, 0]>, <287, 17, 24, 7, 21, 0, 0, [0, 0, 0, 1, 1, 0, 0, 0]>, <288, 18, 25, 7, 21, 0, 0, [0, 0, 0, 1, 1, 0, 0, 0]>, <289, 19, 26, 7, 21, 0, 0, [0, 0, 0, 1, 1, 0, 0, 0]>, <290, 20, 27, 7, 21, 0, 0, [0, 0, 0, 1, 1, 0, 0, 0]>};
